certificates/rado_a5_c273_N54.cnf
c Rad2 upper bound instance: x1 + 5*x2 - x3 = 273, interval [1,54]
p cnf 54 572
1 4 54 0
-1 -4 -54 0
2 5 54 0
-2 -5 -54 0
3 6 54 0
-3 -6 -54 0
4 7 54 0
-4 -7 -54 0
5 8 54 0
-5 -8 -54 0
1 9 53 0
-1 -9 -53 0
6 9 54 0
-6 -9 -54 0
2 10 53 0
-2 -10 -53 0
7 10 54 0
-7 -10 -54 0
3 11 53 0
-3 -11 -53 0
8 11 54 0
-8 -11 -54 0
4 12 53 0
-4 -12 -53 0
9 12 54 0
-9 -12 -54 0
5 13 53 0
-5 -13 -53 0
10 13 54 0
-10 -13 -54 0
1 14 52 0
-1 -14 -52 0
6 14 53 0
-6 -14 -53 0
11 14 54 0
-11 -14 -54 0
2 15 52 0
-2 -15 -52 0
7 15 53 0
-7 -15 -53 0
12 15 54 0
-12 -15 -54 0
3 16 52 0
-3 -16 -52 0
8 16 53 0
-8 -16 -53 0
13 16 54 0
-13 -16 -54 0
4 17 52 0
-4 -17 -52 0
9 17 53 0
-9 -17 -53 0
14 17 54 0
-14 -17 -54 0
5 18 52 0
-5 -18 -52 0
10 18 53 0
-10 -18 -53 0
15 18 54 0
-15 -18 -54 0
1 19 51 0
-1 -19 -51 0
6 19 52 0
-6 -19 -52 0
11 19 53 0
-11 -19 -53 0
16 19 54 0
-16 -19 -54 0
2 20 51 0
-2 -20 -51 0
7 20 52 0
-7 -20 -52 0
12 20 53 0
-12 -20 -53 0
17 20 54 0
-17 -20 -54 0
3 21 51 0
-3 -21 -51 0
8 21 52 0
-8 -21 -52 0
13 21 53 0
-13 -21 -53 0
18 21 54 0
-18 -21 -54 0
4 22 51 0
-4 -22 -51 0
9 22 52 0
-9 -22 -52 0
14 22 53 0
-14 -22 -53 0
19 22 54 0
-19 -22 -54 0
5 23 51 0
-5 -23 -51 0
10 23 52 0
-10 -23 -52 0
15 23 53 0
-15 -23 -53 0
20 23 54 0
-20 -23 -54 0
1 24 50 0
-1 -24 -50 0
6 24 51 0
-6 -24 -51 0
11 24 52 0
-11 -24 -52 0
16 24 53 0
-16 -24 -53 0
21 24 54 0
-21 -24 -54 0
2 25 50 0
-2 -25 -50 0
7 25 51 0
-7 -25 -51 0
12 25 52 0
-12 -25 -52 0
17 25 53 0
-17 -25 -53 0
22 25 54 0
-22 -25 -54 0
3 26 50 0
-3 -26 -50 0
8 26 51 0
-8 -26 -51 0
13 26 52 0
-13 -26 -52 0
18 26 53 0
-18 -26 -53 0
23 26 54 0
-23 -26 -54 0
4 27 50 0
-4 -27 -50 0
9 27 51 0
-9 -27 -51 0
14 27 52 0
-14 -27 -52 0
19 27 53 0
-19 -27 -53 0
24 27 54 0
-24 -27 -54 0
5 28 50 0
-5 -28 -50 0
10 28 51 0
-10 -28 -51 0
15 28 52 0
-15 -28 -52 0
20 28 53 0
-20 -28 -53 0
25 28 54 0
-25 -28 -54 0
1 29 49 0
-1 -29 -49 0
6 29 50 0
-6 -29 -50 0
11 29 51 0
-11 -29 -51 0
16 29 52 0
-16 -29 -52 0
21 29 53 0
-21 -29 -53 0
26 29 54 0
-26 -29 -54 0
2 30 49 0
-2 -30 -49 0
7 30 50 0
-7 -30 -50 0
12 30 51 0
-12 -30 -51 0
17 30 52 0
-17 -30 -52 0
22 30 53 0
-22 -30 -53 0
27 30 54 0
-27 -30 -54 0
3 31 49 0
-3 -31 -49 0
8 31 50 0
-8 -31 -50 0
13 31 51 0
-13 -31 -51 0
18 31 52 0
-18 -31 -52 0
23 31 53 0
-23 -31 -53 0
28 31 54 0
-28 -31 -54 0
4 32 49 0
-4 -32 -49 0
9 32 50 0
-9 -32 -50 0
14 32 51 0
-14 -32 -51 0
19 32 52 0
-19 -32 -52 0
24 32 53 0
-24 -32 -53 0
29 32 54 0
-29 -32 -54 0
5 33 49 0
-5 -33 -49 0
10 33 50 0
-10 -33 -50 0
15 33 51 0
-15 -33 -51 0
20 33 52 0
-20 -33 -52 0
25 33 53 0
-25 -33 -53 0
30 33 54 0
-30 -33 -54 0
1 34 48 0
-1 -34 -48 0
6 34 49 0
-6 -34 -49 0
11 34 50 0
-11 -34 -50 0
16 34 51 0
-16 -34 -51 0
21 34 52 0
-21 -34 -52 0
26 34 53 0
-26 -34 -53 0
31 34 54 0
-31 -34 -54 0
2 35 48 0
-2 -35 -48 0
7 35 49 0
-7 -35 -49 0
12 35 50 0
-12 -35 -50 0
17 35 51 0
-17 -35 -51 0
22 35 52 0
-22 -35 -52 0
27 35 53 0
-27 -35 -53 0
32 35 54 0
-32 -35 -54 0
3 36 48 0
-3 -36 -48 0
8 36 49 0
-8 -36 -49 0
13 36 50 0
-13 -36 -50 0
18 36 51 0
-18 -36 -51 0
23 36 52 0
-23 -36 -52 0
28 36 53 0
-28 -36 -53 0
33 36 54 0
-33 -36 -54 0
4 37 48 0
-4 -37 -48 0
9 37 49 0
-9 -37 -49 0
14 37 50 0
-14 -37 -50 0
19 37 51 0
-19 -37 -51 0
24 37 52 0
-24 -37 -52 0
29 37 53 0
-29 -37 -53 0
34 37 54 0
-34 -37 -54 0
5 38 48 0
-5 -38 -48 0
10 38 49 0
-10 -38 -49 0
15 38 50 0
-15 -38 -50 0
20 38 51 0
-20 -38 -51 0
25 38 52 0
-25 -38 -52 0
30 38 53 0
-30 -38 -53 0
35 38 54 0
-35 -38 -54 0
1 39 47 0
-1 -39 -47 0
6 39 48 0
-6 -39 -48 0
11 39 49 0
-11 -39 -49 0
16 39 50 0
-16 -39 -50 0
21 39 51 0
-21 -39 -51 0
26 39 52 0
-26 -39 -52 0
31 39 53 0
-31 -39 -53 0
36 39 54 0
-36 -39 -54 0
2 40 47 0
-2 -40 -47 0
7 40 48 0
-7 -40 -48 0
12 40 49 0
-12 -40 -49 0
17 40 50 0
-17 -40 -50 0
22 40 51 0
-22 -40 -51 0
27 40 52 0
-27 -40 -52 0
32 40 53 0
-32 -40 -53 0
37 40 54 0
-37 -40 -54 0
3 41 47 0
-3 -41 -47 0
8 41 48 0
-8 -41 -48 0
13 41 49 0
-13 -41 -49 0
18 41 50 0
-18 -41 -50 0
23 41 51 0
-23 -41 -51 0
28 41 52 0
-28 -41 -52 0
33 41 53 0
-33 -41 -53 0
38 41 54 0
-38 -41 -54 0
4 42 47 0
-4 -42 -47 0
9 42 48 0
-9 -42 -48 0
14 42 49 0
-14 -42 -49 0
19 42 50 0
-19 -42 -50 0
24 42 51 0
-24 -42 -51 0
29 42 52 0
-29 -42 -52 0
34 42 53 0
-34 -42 -53 0
39 42 54 0
-39 -42 -54 0
5 43 47 0
-5 -43 -47 0
10 43 48 0
-10 -43 -48 0
15 43 49 0
-15 -43 -49 0
20 43 50 0
-20 -43 -50 0
25 43 51 0
-25 -43 -51 0
30 43 52 0
-30 -43 -52 0
35 43 53 0
-35 -43 -53 0
40 43 54 0
-40 -43 -54 0
1 44 46 0
-1 -44 -46 0
6 44 47 0
-6 -44 -47 0
11 44 48 0
-11 -44 -48 0
16 44 49 0
-16 -44 -49 0
21 44 50 0
-21 -44 -50 0
26 44 51 0
-26 -44 -51 0
31 44 52 0
-31 -44 -52 0
36 44 53 0
-36 -44 -53 0
41 44 54 0
-41 -44 -54 0
2 45 46 0
-2 -45 -46 0
7 45 47 0
-7 -45 -47 0
12 45 48 0
-12 -45 -48 0
17 45 49 0
-17 -45 -49 0
22 45 50 0
-22 -45 -50 0
27 45 51 0
-27 -45 -51 0
32 45 52 0
-32 -45 -52 0
37 45 53 0
-37 -45 -53 0
42 45 54 0
-42 -45 -54 0
3 46 0
-3 -46 0
8 46 47 0
-8 -46 -47 0
13 46 48 0
-13 -46 -48 0
18 46 49 0
-18 -46 -49 0
23 46 50 0
-23 -46 -50 0
28 46 51 0
-28 -46 -51 0
33 46 52 0
-33 -46 -52 0
38 46 53 0
-38 -46 -53 0
43 46 54 0
-43 -46 -54 0
4 46 47 0
-4 -46 -47 0
9 47 0
-9 -47 0
14 47 48 0
-14 -47 -48 0
19 47 49 0
-19 -47 -49 0
24 47 50 0
-24 -47 -50 0
29 47 51 0
-29 -47 -51 0
34 47 52 0
-34 -47 -52 0
39 47 53 0
-39 -47 -53 0
44 47 54 0
-44 -47 -54 0
5 46 48 0
-5 -46 -48 0
10 47 48 0
-10 -47 -48 0
15 48 0
-15 -48 0
20 48 49 0
-20 -48 -49 0
25 48 50 0
-25 -48 -50 0
30 48 51 0
-30 -48 -51 0
35 48 52 0
-35 -48 -52 0
40 48 53 0
-40 -48 -53 0
45 48 54 0
-45 -48 -54 0
1 45 49 0
-1 -45 -49 0
6 46 49 0
-6 -46 -49 0
11 47 49 0
-11 -47 -49 0
16 48 49 0
-16 -48 -49 0
21 49 0
-21 -49 0
26 49 50 0
-26 -49 -50 0
31 49 51 0
-31 -49 -51 0
36 49 52 0
-36 -49 -52 0
41 49 53 0
-41 -49 -53 0
46 49 54 0
-46 -49 -54 0
2 45 50 0
-2 -45 -50 0
7 46 50 0
-7 -46 -50 0
12 47 50 0
-12 -47 -50 0
17 48 50 0
-17 -48 -50 0
22 49 50 0
-22 -49 -50 0
27 50 0
-27 -50 0
32 50 51 0
-32 -50 -51 0
37 50 52 0
-37 -50 -52 0
42 50 53 0
-42 -50 -53 0
47 50 54 0
-47 -50 -54 0
3 45 51 0
-3 -45 -51 0
8 46 51 0
-8 -46 -51 0
13 47 51 0
-13 -47 -51 0
18 48 51 0
-18 -48 -51 0
23 49 51 0
-23 -49 -51 0
28 50 51 0
-28 -50 -51 0
33 51 0
-33 -51 0
38 51 52 0
-38 -51 -52 0
43 51 53 0
-43 -51 -53 0
48 51 54 0
-48 -51 -54 0
4 45 52 0
-4 -45 -52 0
9 46 52 0
-9 -46 -52 0
14 47 52 0
-14 -47 -52 0
19 48 52 0
-19 -48 -52 0
24 49 52 0
-24 -49 -52 0
29 50 52 0
-29 -50 -52 0
34 51 52 0
-34 -51 -52 0
39 52 0
-39 -52 0
44 52 53 0
-44 -52 -53 0
49 52 54 0
-49 -52 -54 0
5 45 53 0
-5 -45 -53 0
10 46 53 0
-10 -46 -53 0
15 47 53 0
-15 -47 -53 0
20 48 53 0
-20 -48 -53 0
25 49 53 0
-25 -49 -53 0
30 50 53 0
-30 -50 -53 0
35 51 53 0
-35 -51 -53 0
40 52 53 0
-40 -52 -53 0
45 53 0
-45 -53 0
50 53 54 0
-50 -53 -54 0
1 44 54 0
-1 -44 -54 0
6 45 54 0
-6 -45 -54 0
11 46 54 0
-11 -46 -54 0
16 47 54 0
-16 -47 -54 0
21 48 54 0
-21 -48 -54 0
26 49 54 0
-26 -49 -54 0
31 50 54 0
-31 -50 -54 0
36 51 54 0
-36 -51 -54 0
41 52 54 0
-41 -52 -54 0
46 53 54 0
-46 -53 -54 0
51 54 0
-51 -54 0
