certificates/rado_a5_c273_N54.drat
-54 0
51 0
-33 0
30 0
36 0
-12 0
-48 0
-18 0
9 0
15 0
45 0
21 0
-27 0
-47 0
-3 0
-53 0
-39 0
-49 0
19 0
24 0
35 0
50 0
14 0
0
